
===== New CPLEX run =====
Instance: /home/yorig/tuner/mpils-tests/instances/miplib/medium-1/neos-3024952-loue.mps
Config: /scratch/yorig/mpils-results-grid-seconds-10-no-mip-start/medium-1/4proc/seed-4/9_neos-3024952-loue_seed-4_20260503_044340/expansion/config_param_CPXPARAM_MIP_Strategy_Branch_-1_iter_2.prm
========================

Selected objective sense:  MINIMIZE
Selected objective  name:  R3706
Selected RHS        name:  B
Selected bound      name:  BOUND
Version identifier: 22.1.2.0 | 2024-11-26 | 0edbb82fd
CPXPARAM_Threads                                 8
CPXPARAM_Parallel                                1
CPXPARAM_MIP_Strategy_Branch                     -1
CPXPARAM_MIP_Cuts_Cliques                        2
CPXPARAM_MIP_Cuts_FlowCovers                     -1
CPXPARAM_MIP_Cuts_Implied                        -1
CPXPARAM_MIP_Cuts_GUBCovers                      2
CPXPARAM_MIP_Cuts_PathCut                        2
CPXPARAM_MIP_Cuts_MIRCut                         2
CPXPARAM_Emphasis_MIP                            1
CPXPARAM_TimeLimit                               10
CPXPARAM_MIP_Limits_ProbeTime                    60
Tried aggregator 2 times.
MIP Presolve eliminated 40 rows and 0 columns.
MIP Presolve modified 80 coefficients.
Aggregator did 32 substitutions.
Reduced MIP has 3633 rows, 3223 columns, and 15906 nonzeros.
Reduced MIP has 0 binaries, 3223 generals, 0 SOSs, and 0 indicators.
Presolve time = 0.01 sec. (7.72 ticks)
Tried aggregator 1 time.
Detecting symmetries...
Reduced MIP has 3633 rows, 3223 columns, and 15906 nonzeros.
Reduced MIP has 0 binaries, 3223 generals, 0 SOSs, and 0 indicators.
Presolve time = 0.01 sec. (8.53 ticks)
MIP emphasis: integer feasibility.
MIP search method: dynamic search.
Parallel mode: deterministic, using up to 8 threads.
Root relaxation solution time = 0.13 sec. (166.79 ticks)

        Nodes                                         Cuts/
   Node  Left     Objective  IInf  Best Integer    Best Bound    ItCnt     Gap

      0     0    22882.0000   397                  22882.0000     3901         
      0     0    23621.5017   727                   Cuts: 491     4422         
      0     0    23799.4952   886                   Cuts: 232     4569         
      0     0    23874.9587   882                   Cuts: 133     4628         
Detecting symmetries...
      0     2    23874.9587   882                  23874.9587     4628         
Elapsed time = 0.42 sec. (516.87 ticks, tree = 0.02 MB, solutions = 0)
    999   833    24314.0690   846                  23874.9587    11729         
   2201  2005    25978.3564   758                  23874.9587    22930         
   3525  3387    29014.6130   606                  23874.9587    37226         
   4787  4554    33248.8000   376                  23874.9587    51142         
   5910  5541    37666.5567   342                  23874.9587    65223         
   7166  6361    25341.5567   839                  23874.9587    75754         
   8453  7598    24948.8571   796                  23874.9587    87283         
   9742  9065    31085.5800   628                  23874.9587   101529         
  10971 10306    30268.5136   578                  23874.9587   113777         
  15554 14195    30487.2593   555                  23874.9587   169607         
Elapsed time = 2.43 sec. (3619.18 ticks, tree = 48.16 MB, solutions = 0)
  19959 18201    24758.2571   922                  23874.9587   225184         
  24594 22359    36291.7000   462                  23874.9587   286162         
  29016 25728    24774.0595   906                  23874.9587   335770         
  33552 30029    24410.0338  1009                  23874.9587   399724         
  38251 34451    25982.9825   675                  23874.9587   459410         
  42939 37794    25462.6695   853                  23874.9587   498690         
  47739 42810    31148.5011   655                  23874.9587   566538         
  52567 47026    31486.7592   552                  23874.9587   621864         
  56996 50940    30759.3441   518                  23874.9587   669220         
  61541 54182    52306.7933   195                  23874.9587   725630         
Elapsed time = 8.74 sec. (13158.01 ticks, tree = 189.89 MB, solutions = 0)

Performing restart 1

Repeating presolve.
Tried aggregator 1 time.
MIP Presolve modified 16 coefficients.
Reduced MIP has 3633 rows, 3223 columns, and 15892 nonzeros.
Reduced MIP has 0 binaries, 3223 generals, 0 SOSs, and 0 indicators.
Presolve time = 0.00 sec. (6.35 ticks)
Tried aggregator 1 time.
Reduced MIP has 3633 rows, 3223 columns, and 15892 nonzeros.
Reduced MIP has 0 binaries, 3223 generals, 0 SOSs, and 0 indicators.
Presolve time = 0.01 sec. (8.81 ticks)
Represolve time = 0.03 sec. (28.38 ticks)
  64767     0    24411.3654   813                   Cuts: 294   779931         
  64767     0    24601.4098   887                   Cuts: 233   780111         
  64767     0    24709.6653  1103                   Cuts: 232   780246         
  64767     2    24709.6653  1103                  24709.6653   780246         

GUB cover cuts applied:  0
Clique cuts applied:  0
Mixed integer rounding cuts applied:  328
Flow path cuts applied:  0
Zero-half cuts applied:  19
Gomory fractional cuts applied:  71

Root node processing (before b&c):
  Real time             =    0.42 sec. (514.29 ticks)
Parallel b&c, 8 threads:
  Real time             =    9.59 sec. (14471.13 ticks)
  Sync time (average)   =    0.97 sec.
  Wait time (average)   =    0.00 sec.
                          ------------
Total (root+branch&cut) =   10.00 sec. (14985.42 ticks)
Gap: unavailable
Lower bound: 24709.7
End of CPLEX run. Time: 10.0028 seconds
